p tw 60 66
1 2
2 13
3 4
4 5
5 6
6 7
6 58
7 8
8 9
9 10
10 11
11 12
12 14
13 24
14 15
14 23
15 16
16 17
17 18
18 19
18 23
19 20
20 21
21 22
22 23
22 48
23 25
24 35
25 26
26 27
27 28
28 29
29 30
30 31
31 32
32 33
33 34
34 36
34 28
35 46
36 37
37 38
38 39
39 40
40 41
41 42
42 43
43 44
44 45
45 47
45 48
46 57
47 48
48 49
49 50
49 52
50 51
51 52
52 53
53 54
54 55
55 56
57 58
58 59
59 60
60 3
